; PUSH cw_1 SWAP2 CALLER SWAP2 AND => AND CALLER PUSH cw_1 SWAP2
(set-option :produce-proofs true)
; 
(set-info :status unknown)
(declare-fun storage_t ((_ BitVec 256) (_ BitVec 256) (_ BitVec 256) (_ BitVec 256) Int (_ BitVec 256)) (_ BitVec 256))
(declare-fun w_1 () (_ BitVec 256))
(declare-fun storage_s ((_ BitVec 256) (_ BitVec 256) (_ BitVec 256) (_ BitVec 256) Int (_ BitVec 256)) (_ BitVec 256))
(declare-fun exc_halt_t (Int) Bool)
(declare-fun exc_halt_s (Int) Bool)
(declare-fun stack_t ((_ BitVec 256) (_ BitVec 256) (_ BitVec 256) (_ BitVec 256) Int (_ BitVec 6)) (_ BitVec 256))
(declare-fun stack_s ((_ BitVec 256) (_ BitVec 256) (_ BitVec 256) (_ BitVec 256) Int (_ BitVec 6)) (_ BitVec 256))
(declare-fun sc_t (Int) (_ BitVec 6))
(declare-fun sc_s (Int) (_ BitVec 6))
(declare-fun used_gas_t ((_ BitVec 256) (_ BitVec 256) (_ BitVec 256) (_ BitVec 256) Int) Int)
(declare-fun used_gas_s ((_ BitVec 256) (_ BitVec 256) (_ BitVec 256) (_ BitVec 256) Int) Int)
(assert
 (exists ((x_0 (_ BitVec 256)) (x_1 (_ BitVec 256)) (x_CALLER (_ BitVec 256)) )(let (($x901 (forall ((w (_ BitVec 256)) )(let ((?x478 (storage_t x_0 x_1 w_1 x_CALLER 4 w)))
 (let ((?x1626 (storage_s x_0 x_1 w_1 x_CALLER 5 w)))
 (= ?x1626 ?x478))))
 ))
 (let (($x7722 (exc_halt_t 4)))
 (let (($x11317 (exc_halt_s 5)))
 (let (($x4745 (= $x11317 $x7722)))
 (let (($x5205 (forall ((n (_ BitVec 6)) )(let ((?x6714 (stack_t x_0 x_1 w_1 x_CALLER 4 n)))
 (let ((?x8621 (stack_s x_0 x_1 w_1 x_CALLER 5 n)))
 (let (($x10469 (= ?x8621 ?x6714)))
 (or (bvsle (sc_t 4) n) $x10469)))))
 ))
 (let ((?x11631 (sc_t 4)))
 (let ((?x4319 (sc_s 5)))
 (let (($x3234 (= ?x4319 ?x11631)))
 (let ((?x6092 (used_gas_t x_0 x_1 w_1 x_CALLER 0)))
 (let ((?x9322 (used_gas_s x_0 x_1 w_1 x_CALLER 0)))
 (let (($x5461 (= ?x9322 ?x6092)))
 (let (($x6915 (forall ((w (_ BitVec 256)) )(let ((?x8675 (storage_t x_0 x_1 w_1 x_CALLER 0 w)))
 (let ((?x2758 (storage_s x_0 x_1 w_1 x_CALLER 0 w)))
 (= ?x2758 ?x8675))))
 ))
 (let (($x56 (exc_halt_t 0)))
 (let (($x57 (exc_halt_s 0)))
 (let (($x58 (= $x57 $x56)))
 (let (($x1839 (forall ((n (_ BitVec 6)) )(let ((?x63 (sc_t 0)))
 (let (($x9192 (bvsle ?x63 n)))
 (let ((?x11691 (stack_t x_0 x_1 w_1 x_CALLER 0 n)))
 (let ((?x5408 (stack_s x_0 x_1 w_1 x_CALLER 0 n)))
 (let (($x8792 (= ?x5408 ?x11691)))
 (or $x8792 $x9192)))))))
 ))
 (let ((?x63 (sc_t 0)))
 (let ((?x72 (sc_s 0)))
 (let (($x73 (= ?x72 ?x63)))
 (let (($x5103 (= $x7722 (or (exc_halt_t 3) (not (bvsle (_ bv0 6) (bvadd (_ bv61 6) (sc_t 3))))))))
 (let (($x2987 (forall ((w (_ BitVec 256)) )(let ((?x6777 (storage_t x_0 x_1 w_1 x_CALLER 3 w)))
 (let ((?x478 (storage_t x_0 x_1 w_1 x_CALLER 4 w)))
 (= ?x478 ?x6777))))
 ))
 (let (($x485 (forall ((n (_ BitVec 6)) )(let ((?x8729 (stack_t x_0 x_1 w_1 x_CALLER 3 n)))
 (let ((?x6714 (stack_t x_0 x_1 w_1 x_CALLER 4 n)))
 (or (bvsle (bvadd (_ bv61 6) (sc_t 3)) n) (= ?x6714 ?x8729)))))
 ))
 (let (($x4699 (= (used_gas_t x_0 x_1 w_1 x_CALLER 4) (+ 3 (used_gas_t x_0 x_1 w_1 x_CALLER 3)))))
 (let (($x7629 (= (stack_t x_0 x_1 w_1 x_CALLER 4 (bvadd (_ bv62 6) ?x11631)) (stack_t x_0 x_1 w_1 x_CALLER 3 (bvadd (_ bv62 6) (sc_t 3))))))
 (let (($x7514 (= (stack_t x_0 x_1 w_1 x_CALLER 4 (bvadd (_ bv61 6) ?x11631)) (stack_t x_0 x_1 w_1 x_CALLER 3 (bvadd (_ bv63 6) (sc_t 3))))))
 (let (($x1236 (= (stack_t x_0 x_1 w_1 x_CALLER 4 (bvadd (_ bv63 6) ?x11631)) (stack_t x_0 x_1 w_1 x_CALLER 3 (bvadd (_ bv61 6) (sc_t 3))))))
 (let (($x4835 (exc_halt_t 2)))
 (let (($x8474 (or $x4835 (not (= ((_ extract 6 6) (bvadd (_ bv1 7) (concat (_ bv0 1) (sc_t 2)))) (_ bv0 1))))))
 (let (($x6783 (exc_halt_t 3)))
 (let (($x4398 (forall ((w (_ BitVec 256)) )(let ((?x5190 (storage_t x_0 x_1 w_1 x_CALLER 2 w)))
 (let ((?x6777 (storage_t x_0 x_1 w_1 x_CALLER 3 w)))
 (= ?x6777 ?x5190))))
 ))
 (let (($x9040 (forall ((n (_ BitVec 6)) )(let ((?x1596 (stack_t x_0 x_1 w_1 x_CALLER 2 n)))
 (let ((?x8729 (stack_t x_0 x_1 w_1 x_CALLER 3 n)))
 (or (= ?x8729 ?x1596) (bvsle (sc_t 2) n)))))
 ))
 (let ((?x2208 (used_gas_t x_0 x_1 w_1 x_CALLER 3)))
 (let (($x3508 (exc_halt_t 1)))
 (let (($x9225 (or $x3508 (not (= ((_ extract 6 6) (bvadd (_ bv1 7) (concat (_ bv0 1) (sc_t 1)))) (_ bv0 1))))))
 (let (($x3912 (forall ((w (_ BitVec 256)) )(let ((?x2701 (storage_t x_0 x_1 w_1 x_CALLER 1 w)))
 (let ((?x5190 (storage_t x_0 x_1 w_1 x_CALLER 2 w)))
 (= ?x5190 ?x2701))))
 ))
 (let (($x4012 (forall ((n (_ BitVec 6)) )(let ((?x2623 (stack_t x_0 x_1 w_1 x_CALLER 1 n)))
 (let ((?x1596 (stack_t x_0 x_1 w_1 x_CALLER 2 n)))
 (or (bvsle (sc_t 1) n) (= ?x1596 ?x2623)))))
 ))
 (let ((?x916 (used_gas_t x_0 x_1 w_1 x_CALLER 2)))
 (let (($x10214 (= $x3508 (or $x56 (not (bvsle (_ bv0 6) (bvadd (_ bv62 6) ?x63)))))))
 (let (($x5232 (forall ((w (_ BitVec 256)) )(let ((?x8675 (storage_t x_0 x_1 w_1 x_CALLER 0 w)))
 (let ((?x2701 (storage_t x_0 x_1 w_1 x_CALLER 1 w)))
 (= ?x2701 ?x8675))))
 ))
 (let (($x9395 (forall ((n (_ BitVec 6)) )(let ((?x11691 (stack_t x_0 x_1 w_1 x_CALLER 0 n)))
 (let ((?x2623 (stack_t x_0 x_1 w_1 x_CALLER 1 n)))
 (let ((?x63 (sc_t 0)))
 (let ((?x11156 (bvadd (_ bv62 6) ?x63)))
 (let (($x9494 (bvsle ?x11156 n)))
 (or $x9494 (= ?x2623 ?x11691))))))))
 ))
 (let ((?x3315 (bvor (bvnot (stack_t x_0 x_1 w_1 x_CALLER 0 (bvadd (_ bv63 6) ?x63))) (bvnot (stack_t x_0 x_1 w_1 x_CALLER 0 (bvadd (_ bv62 6) ?x63))))))
 (let (($x4463 (= (stack_t x_0 x_1 w_1 x_CALLER 1 (bvadd (_ bv63 6) (sc_t 1))) (bvnot ?x3315))))
 (let (($x6879 (= $x11317 (or (exc_halt_s 4) (not (bvsle (_ bv0 6) (bvadd (_ bv62 6) (sc_s 4))))))))
 (let (($x5197 (forall ((w (_ BitVec 256)) )(let ((?x6806 (storage_s x_0 x_1 w_1 x_CALLER 4 w)))
 (let ((?x1626 (storage_s x_0 x_1 w_1 x_CALLER 5 w)))
 (= ?x1626 ?x6806))))
 ))
 (let (($x1719 (forall ((n (_ BitVec 6)) )(let ((?x5707 (stack_s x_0 x_1 w_1 x_CALLER 4 n)))
 (let ((?x8621 (stack_s x_0 x_1 w_1 x_CALLER 5 n)))
 (let ((?x4305 (sc_s 4)))
 (let ((?x9762 (bvadd (_ bv62 6) ?x4305)))
 (let (($x8231 (bvsle ?x9762 n)))
 (or $x8231 (= ?x8621 ?x5707))))))))
 ))
 (let (($x7710 (= (used_gas_s x_0 x_1 w_1 x_CALLER 5) (+ 3 (used_gas_s x_0 x_1 w_1 x_CALLER 4)))))
 (let ((?x4305 (sc_s 4)))
 (let ((?x9762 (bvadd (_ bv62 6) ?x4305)))
 (let ((?x5074 (stack_s x_0 x_1 w_1 x_CALLER 4 ?x9762)))
 (let ((?x5204 (bvor (bvnot (stack_s x_0 x_1 w_1 x_CALLER 4 (bvadd (_ bv63 6) ?x4305))) (bvnot ?x5074))))
 (let (($x7655 (= (stack_s x_0 x_1 w_1 x_CALLER 5 (bvadd (_ bv63 6) ?x4319)) (bvnot ?x5204))))
 (let (($x7172 (exc_halt_s 4)))
 (let (($x193 (= $x7172 (or (exc_halt_s 3) (not (bvsle (_ bv0 6) (bvadd (_ bv61 6) (sc_s 3))))))))
 (let (($x7532 (forall ((w (_ BitVec 256)) )(let ((?x2594 (storage_s x_0 x_1 w_1 x_CALLER 3 w)))
 (let ((?x6806 (storage_s x_0 x_1 w_1 x_CALLER 4 w)))
 (= ?x6806 ?x2594))))
 ))
 (let (($x10936 (forall ((n (_ BitVec 6)) )(let ((?x4829 (stack_s x_0 x_1 w_1 x_CALLER 3 n)))
 (let ((?x5707 (stack_s x_0 x_1 w_1 x_CALLER 4 n)))
 (or (bvsle (bvadd (_ bv61 6) (sc_s 3)) n) (= ?x5707 ?x4829)))))
 ))
 (let ((?x275 (sc_s 3)))
 (let (($x1977 (= ?x4305 ?x275)))
 (let ((?x4054 (used_gas_s x_0 x_1 w_1 x_CALLER 4)))
 (let (($x55 (= (stack_s x_0 x_1 w_1 x_CALLER 4 (bvadd (_ bv61 6) ?x4305)) (stack_s x_0 x_1 w_1 x_CALLER 3 (bvadd (_ bv63 6) ?x275)))))
 (let ((?x9660 (bvadd (_ bv63 6) ?x4305)))
 (let ((?x5017 (stack_s x_0 x_1 w_1 x_CALLER 4 ?x9660)))
 (let (($x247 (exc_halt_s 2)))
 (let (($x8682 (or $x247 (not (= ((_ extract 6 6) (bvadd (_ bv1 7) (concat (_ bv0 1) (sc_s 2)))) (_ bv0 1))))))
 (let (($x292 (exc_halt_s 3)))
 (let (($x5640 (forall ((w (_ BitVec 256)) )(let ((?x7475 (storage_s x_0 x_1 w_1 x_CALLER 2 w)))
 (let ((?x2594 (storage_s x_0 x_1 w_1 x_CALLER 3 w)))
 (= ?x2594 ?x7475))))
 ))
 (let (($x8263 (forall ((n (_ BitVec 6)) )(let ((?x2109 (stack_s x_0 x_1 w_1 x_CALLER 2 n)))
 (let ((?x4829 (stack_s x_0 x_1 w_1 x_CALLER 3 n)))
 (or (= ?x4829 ?x2109) (bvsle (sc_s 2) n)))))
 ))
 (let ((?x731 (used_gas_s x_0 x_1 w_1 x_CALLER 3)))
 (let (($x7942 (= $x247 (or (exc_halt_s 1) (not (bvsle (_ bv0 6) (bvadd (_ bv61 6) (sc_s 1))))))))
 (let (($x7228 (forall ((w (_ BitVec 256)) )(let ((?x10151 (storage_s x_0 x_1 w_1 x_CALLER 1 w)))
 (let ((?x7475 (storage_s x_0 x_1 w_1 x_CALLER 2 w)))
 (= ?x7475 ?x10151))))
 ))
 (let (($x5900 (forall ((n (_ BitVec 6)) )(let ((?x8546 (stack_s x_0 x_1 w_1 x_CALLER 1 n)))
 (let ((?x2109 (stack_s x_0 x_1 w_1 x_CALLER 2 n)))
 (or (= ?x2109 ?x8546) (bvsle (bvadd (_ bv61 6) (sc_s 1)) n)))))
 ))
 (let ((?x154 (sc_s 1)))
 (let ((?x218 (sc_s 2)))
 (let (($x3997 (= ?x218 ?x154)))
 (let ((?x872 (used_gas_s x_0 x_1 w_1 x_CALLER 2)))
 (let (($x6240 (= (stack_s x_0 x_1 w_1 x_CALLER 2 (bvadd (_ bv62 6) ?x218)) (stack_s x_0 x_1 w_1 x_CALLER 1 (bvadd (_ bv62 6) ?x154)))))
 (let (($x7325 (= (stack_s x_0 x_1 w_1 x_CALLER 2 (bvadd (_ bv61 6) ?x218)) (stack_s x_0 x_1 w_1 x_CALLER 1 (bvadd (_ bv63 6) ?x154)))))
 (let (($x1769 (= (stack_s x_0 x_1 w_1 x_CALLER 2 (bvadd (_ bv63 6) ?x218)) (stack_s x_0 x_1 w_1 x_CALLER 1 (bvadd (_ bv61 6) ?x154)))))
 (let (($x189 (exc_halt_s 1)))
 (let (($x6205 (= $x189 (or $x57 (not (= ((_ extract 6 6) (bvadd (_ bv1 7) (concat (_ bv0 1) ?x72))) (_ bv0 1)))))))
 (let (($x8594 (forall ((w (_ BitVec 256)) )(let ((?x2758 (storage_s x_0 x_1 w_1 x_CALLER 0 w)))
 (let ((?x10151 (storage_s x_0 x_1 w_1 x_CALLER 1 w)))
 (= ?x10151 ?x2758))))
 ))
 (let (($x3083 (forall ((n (_ BitVec 6)) )(let ((?x5408 (stack_s x_0 x_1 w_1 x_CALLER 0 n)))
 (let ((?x8546 (stack_s x_0 x_1 w_1 x_CALLER 1 n)))
 (or (= ?x8546 ?x5408) (bvsle (sc_s 0) n)))))
 ))
 (let (($x5394 (forall ((w (_ BitVec 256)) )(let ((?x2758 (storage_s x_0 x_1 w_1 x_CALLER 0 w)))
 (= ?x2758 (_ bv0 256))))
 ))
 (let (($x1922 (= ?x9322 0)))
 (let (($x1141 (not $x57)))
 (let (($x8629 (= (stack_s x_0 x_1 w_1 x_CALLER 0 (_ bv1 6)) x_1)))
 (let (($x3882 (= (stack_s x_0 x_1 w_1 x_CALLER 0 (_ bv0 6)) x_0)))
 (let (($x5776 (= ?x72 (_ bv2 6))))
 (and $x5776 $x3882 $x8629 $x1141 $x1922 $x5394 (= (stack_s x_0 x_1 w_1 x_CALLER 1 ?x72) w_1) (= (used_gas_s x_0 x_1 w_1 x_CALLER 1) (+ 3 ?x9322)) (= ?x154 (bvadd (_ bv1 6) ?x72)) $x3083 $x8594 $x6205 $x1769 $x7325 $x6240 (= ?x872 (+ 3 (used_gas_s x_0 x_1 w_1 x_CALLER 1))) $x3997 $x5900 $x7228 $x7942 (= (stack_s x_0 x_1 w_1 x_CALLER 3 ?x218) x_CALLER) (= ?x731 (+ 2 ?x872)) (= ?x275 (bvadd (_ bv1 6) ?x218)) $x8263 $x5640 (= $x292 $x8682) (= ?x5017 (stack_s x_0 x_1 w_1 x_CALLER 3 (bvadd (_ bv61 6) ?x275))) $x55 (= ?x5074 (stack_s x_0 x_1 w_1 x_CALLER 3 (bvadd (_ bv62 6) ?x275))) (= ?x4054 (+ 3 ?x731)) $x1977 $x10936 $x7532 $x193 $x7655 $x7710 (= ?x4319 ?x9660) $x1719 $x5197 $x6879 $x4463 (= (used_gas_t x_0 x_1 w_1 x_CALLER 1) (+ 3 ?x6092)) (= (sc_t 1) (bvadd (_ bv63 6) ?x63)) $x9395 $x5232 $x10214 (= (stack_t x_0 x_1 w_1 x_CALLER 2 (sc_t 1)) x_CALLER) (= ?x916 (+ 2 (used_gas_t x_0 x_1 w_1 x_CALLER 1))) (= (sc_t 2) (bvadd (_ bv1 6) (sc_t 1))) $x4012 $x3912 (= $x4835 $x9225) (= (stack_t x_0 x_1 w_1 x_CALLER 3 (sc_t 2)) w_1) (= ?x2208 (+ 3 ?x916)) (= (sc_t 3) (bvadd (_ bv1 6) (sc_t 2))) $x9040 $x4398 (= $x6783 $x8474) $x1236 $x7514 $x7629 $x4699 (= ?x11631 (sc_t 3)) $x485 $x2987 $x5103 $x73 $x1839 $x58 $x6915 $x5461 (not (and $x3234 $x5205 $x4745 $x901)))))))))))))))))))))))))))))))))))))))))))))))))))))))))))))))))))))))))))))))))))))))))))
 )
(check-sat)
(get-proof)
